%BLOCK LATTICE_CART
4.308867 0 0
0 4.308867 0
0 0 4.308867
%ENDBLOCK LATTICE_CART

#VARVOL=80

%BLOCK POSITIONS_FRAC
Na 0.0 0.0 0.0 # Na1 % NUM=1
Li 0.0 0.0 0.0 # Li1 % NUM=1
Ta 0.0 0.0 0.0 # Ta1 % NUM=1
Ta 0.0 0.0 0.0 # Ta2 % NUM=1
O 0.0 0.0 0.0 # O1 % NUM=1
O 0.0 0.0 0.0 # O2 % NUM=1
O 0.0 0.0 0.0 # O3 % NUM=1
O 0.0 0.0 0.0 # O4 % NUM=1
O 0.0 0.0 0.0 # O5 % NUM=1
O 0.0 0.0 0.0 # O6 % NUM=1
%ENDBLOCK POSITIONS_FRAC

##SPECIES=Na,Li,Ta,O
##NATOM=3-9
##FOCUS=4

#SYMMOPS=2-4
##SGRANK=20
#NFORM=1
##ADJGEN=0-1
#SLACK=0.25
#OVERLAP=0.1
#MINSEP=1-3 AUTO
#COMPACT
#CELLADAPT
##SYSTEM={Rhom,Tric,Mono,Cubi,Hexa,Orth,Tetra}

KPOINTS_MP_SPACING 0.05

SYMMETRY_GENERATE
SNAP_TO_SYMMETRY

%BLOCK SPECIES_POT
%ENDBLOCK SPECIES_POT

%BLOCK EXTERNAL_PRESSURE
0 0 0
0 0
0
%ENDBLOCK EXTERNAL_PRESSURE
